c
c start with comments
c
p cnf 26 18
-20 -20 19 0
14 -9 4 0
22 -6 -15 -21 -15 0
13 23 -24 5 -18 0
-4 26 0
-8 -14 0
23 28 -9 0
-16 27 5 -16 0
23 25 1 8 0
24 -28 0
10 20 12 6 0
14 25 14 -5 0
16 13 -9 0
2 -7 2 0
9 -1 0
-15 -15 10 -25 0
-10 21 0
-9 -19 -26 18 -17 0